
  22   10
  10   10   10   10   10   10   10   10   10   10

   0   0   0   0   0   0   0   0   0   0   0   1 2 
   1   0   0   0   0   0   0  10   0   0   0   1 3 
   6  10   0   0   0   0   0   0   0   0   0   1 4 
   3   0  10   0   0   0   0   0   0   0   0   1 5 
   2   0   0   0   0   0   0   0   0  10   0   1 6 
   5   0   0   0  10   0   0   0   0   0   0   1 7 
   4   0   0   0   0  10   0   0   0   0   0   2 14 8 
   9  10   0   0   0   0   0   0   0   0   0   1 9 
   9  10   0   0   0   0   0   0   0   0   0   1 10 
  10   0   0  10   0   0   0   0   0   0   0   1 11 
   8   0   0   0   0   0  10   0   0   0   0   1 12 
   2   0   0   0   0   0   0   0   0  10   0   1 13 
   4   0   0   0   0   0   0  10   0   0   0   1 15 
   5   0   0   0   0   0  10   0   0   0   0   1 15 
   7  10   0   0   0   0   0   0   0   0   0   1 16 
   8   0   0   0   0   0  10   0   0   0   0   1 17 
   4  10   0   0   0   0   0   0   0   0   0   2 21 18 
   4   0  10   0   0   0   0   0   0   0   0   1 19 
   8   0   0   0   0   0   0   0   0  10   0   1 20 
   9   0   0   0   0   0   0  10   0   0   0   1 22
   9   0   0   0   0  10   0   0   0   0   0   1 22
   0   0   0   0   0   0   0   0   0   0   0   0 
